p cnf 200 1110
-101 89 0
-101 -76 0
-101 91 0
-101 -25 0
-101 -90 0
-101 23 0
-101 87 0
-101 78 0
-101 50 0
-101 74 0
101 -89 76 -91 25 90 -23 -87 -78 -50 -74 0
-102 -68 0
-102 -59 0
-102 -44 0
-102 -4 0
-102 -65 0
-102 -90 0
-102 72 0
-102 -42 0
-102 -87 0
-102 -93 0
102 68 59 44 4 65 90 -72 42 87 93 0
-103 -22 0
-103 16 0
-103 75 0
-103 -44 0
-103 30 0
-103 82 0
-103 19 0
-103 25 0
-103 -23 0
-103 -66 0
103 22 -16 -75 44 -30 -82 -19 -25 23 66 0
-104 -80 0
-104 33 0
-104 82 0
-104 22 0
-104 -76 0
-104 -86 0
-104 -17 0
-104 -25 0
-104 -100 0
-104 32 0
104 80 -33 -82 -22 76 86 17 25 100 -32 0
-105 39 0
-105 52 0
-105 -48 0
-105 70 0
-105 -83 0
-105 -94 0
-105 -97 0
-105 -92 0
-105 74 0
-105 -34 0
105 -39 -52 48 -70 83 94 97 92 -74 34 0
-106 -55 0
-106 8 0
-106 68 0
-106 25 0
-106 12 0
-106 43 0
-106 36 0
-106 27 0
-106 32 0
-106 -99 0
106 55 -8 -68 -25 -12 -43 -36 -27 -32 99 0
-107 70 0
-107 -64 0
-107 -9 0
-107 -36 0
-107 -73 0
-107 -25 0
-107 -18 0
-107 -20 0
-107 59 0
-107 82 0
107 -70 64 9 36 73 25 18 20 -59 -82 0
-108 -54 0
-108 53 0
-108 38 0
-108 30 0
-108 36 0
-108 -59 0
-108 -10 0
-108 8 0
-108 -33 0
-108 -76 0
108 54 -53 -38 -30 -36 59 10 -8 33 76 0
-109 47 0
-109 18 0
-109 -7 0
-109 53 0
-109 81 0
-109 78 0
-109 94 0
-109 68 0
-109 52 0
-109 51 0
109 -47 -18 7 -53 -81 -78 -94 -68 -52 -51 0
-110 22 0
-110 82 0
-110 44 0
-110 -78 0
-110 -58 0
-110 96 0
-110 -71 0
-110 38 0
-110 -29 0
-110 -24 0
110 -22 -82 -44 78 58 -96 71 -38 29 24 0
101 102 103 104 105 106 107 108 109 110 0
-111 -1 0
-111 -23 0
-111 -83 0
-111 70 0
-111 -10 0
-111 48 0
-111 -62 0
-111 59 0
-111 16 0
-111 77 0
111 1 23 83 -70 10 -48 62 -59 -16 -77 0
-112 31 0
-112 -40 0
-112 94 0
-112 -95 0
-112 -8 0
-112 79 0
-112 -30 0
-112 -35 0
-112 -87 0
-112 -16 0
112 -31 40 -94 95 8 -79 30 35 87 16 0
-113 73 0
-113 68 0
-113 -52 0
-113 1 0
-113 61 0
-113 39 0
-113 17 0
-113 31 0
-113 -12 0
-113 -16 0
113 -73 -68 52 -1 -61 -39 -17 -31 12 16 0
-114 -73 0
-114 81 0
-114 96 0
-114 -47 0
-114 59 0
-114 77 0
-114 -74 0
-114 -58 0
-114 -34 0
-114 -28 0
114 73 -81 -96 47 -59 -77 74 58 34 28 0
-115 -5 0
-115 11 0
-115 -60 0
-115 40 0
-115 -53 0
-115 96 0
-115 -72 0
-115 -81 0
-115 -94 0
-115 -97 0
115 5 -11 60 -40 53 -96 72 81 94 97 0
-116 -34 0
-116 82 0
-116 32 0
-116 -78 0
-116 -71 0
-116 58 0
-116 -43 0
-116 -54 0
-116 -24 0
-116 -62 0
116 34 -82 -32 78 71 -58 43 54 24 62 0
-117 -70 0
-117 100 0
-117 -26 0
-117 -47 0
-117 -57 0
-117 67 0
-117 16 0
-117 54 0
-117 52 0
-117 -51 0
117 70 -100 26 47 57 -67 -16 -54 -52 51 0
-118 5 0
-118 98 0
-118 67 0
-118 -81 0
-118 -85 0
-118 -18 0
-118 -14 0
-118 -13 0
-118 -73 0
-118 64 0
118 -5 -98 -67 81 85 18 14 13 73 -64 0
-119 4 0
-119 10 0
-119 49 0
-119 42 0
-119 94 0
-119 -39 0
-119 -20 0
-119 -62 0
-119 95 0
-119 82 0
119 -4 -10 -49 -42 -94 39 20 62 -95 -82 0
-120 24 0
-120 99 0
-120 67 0
-120 65 0
-120 79 0
-120 -40 0
-120 33 0
-120 -18 0
-120 70 0
-120 29 0
120 -24 -99 -67 -65 -79 40 -33 18 -70 -29 0
111 112 113 114 115 116 117 118 119 120 0
-121 11 0
-121 68 0
-121 -6 0
-121 42 0
-121 -29 0
-121 -17 0
-121 -59 0
-121 37 0
-121 9 0
-121 -94 0
121 -11 -68 6 -42 29 17 59 -37 -9 94 0
-122 -61 0
-122 44 0
-122 -84 0
-122 60 0
-122 75 0
-122 -100 0
-122 93 0
-122 82 0
-122 -66 0
-122 29 0
122 61 -44 84 -60 -75 100 -93 -82 66 -29 0
-123 19 0
-123 -42 0
-123 55 0
-123 -59 0
-123 -79 0
-123 70 0
-123 -91 0
-123 -13 0
-123 9 0
-123 -65 0
123 -19 42 -55 59 79 -70 91 13 -9 65 0
-124 -42 0
-124 -13 0
-124 3 0
-124 -45 0
-124 14 0
-124 28 0
-124 -55 0
-124 4 0
-124 -86 0
-124 57 0
124 42 13 -3 45 -14 -28 55 -4 86 -57 0
-125 -35 0
-125 -49 0
-125 34 0
-125 -27 0
-125 -33 0
-125 -98 0
-125 67 0
-125 5 0
-125 -18 0
-125 53 0
125 35 49 -34 27 33 98 -67 -5 18 -53 0
-126 97 0
-126 -71 0
-126 45 0
-126 -88 0
-126 -86 0
-126 -67 0
-126 -6 0
-126 -75 0
-126 70 0
-126 58 0
126 -97 71 -45 88 86 67 6 75 -70 -58 0
-127 -61 0
-127 -38 0
-127 -82 0
-127 3 0
-127 10 0
-127 66 0
-127 -87 0
-127 85 0
-127 4 0
-127 78 0
127 61 38 82 -3 -10 -66 87 -85 -4 -78 0
-128 42 0
-128 14 0
-128 84 0
-128 92 0
-128 -31 0
-128 -7 0
-128 -52 0
-128 -11 0
-128 -40 0
-128 -43 0
128 -42 -14 -84 -92 31 7 52 11 40 43 0
-129 -7 0
-129 51 0
-129 44 0
-129 -2 0
-129 -53 0
-129 -82 0
-129 -42 0
-129 -61 0
-129 88 0
-129 -3 0
129 7 -51 -44 2 53 82 42 61 -88 3 0
-130 53 0
-130 -86 0
-130 -87 0
-130 35 0
-130 20 0
-130 38 0
-130 72 0
-130 6 0
-130 -29 0
-130 -54 0
130 -53 86 87 -35 -20 -38 -72 -6 29 54 0
121 122 123 124 125 126 127 128 129 130 0
-131 28 0
-131 9 0
-131 96 0
-131 58 0
-131 -42 0
-131 -98 0
-131 -16 0
-131 17 0
-131 89 0
-131 36 0
131 -28 -9 -96 -58 42 98 16 -17 -89 -36 0
-132 -29 0
-132 -96 0
-132 37 0
-132 -28 0
-132 -68 0
-132 -7 0
-132 91 0
-132 -81 0
-132 15 0
-132 -22 0
132 29 96 -37 28 68 7 -91 81 -15 22 0
-133 32 0
-133 -78 0
-133 81 0
-133 56 0
-133 27 0
-133 52 0
-133 59 0
-133 -15 0
-133 1 0
-133 -71 0
133 -32 78 -81 -56 -27 -52 -59 15 -1 71 0
-134 39 0
-134 40 0
-134 -71 0
-134 51 0
-134 37 0
-134 -90 0
-134 -81 0
-134 17 0
-134 18 0
-134 56 0
134 -39 -40 71 -51 -37 90 81 -17 -18 -56 0
-135 28 0
-135 57 0
-135 91 0
-135 -40 0
-135 17 0
-135 39 0
-135 -85 0
-135 52 0
-135 50 0
-135 84 0
135 -28 -57 -91 40 -17 -39 85 -52 -50 -84 0
-136 36 0
-136 74 0
-136 -37 0
-136 95 0
-136 29 0
-136 85 0
-136 72 0
-136 62 0
-136 22 0
-136 84 0
136 -36 -74 37 -95 -29 -85 -72 -62 -22 -84 0
-137 -65 0
-137 7 0
-137 -6 0
-137 -40 0
-137 -46 0
-137 -74 0
-137 -99 0
-137 -55 0
-137 -92 0
-137 35 0
137 65 -7 6 40 46 74 99 55 92 -35 0
-138 89 0
-138 36 0
-138 65 0
-138 -66 0
-138 -6 0
-138 -19 0
-138 11 0
-138 -45 0
-138 -2 0
-138 47 0
138 -89 -36 -65 66 6 19 -11 45 2 -47 0
-139 -31 0
-139 49 0
-139 98 0
-139 -48 0
-139 -13 0
-139 -27 0
-139 94 0
-139 36 0
-139 72 0
-139 6 0
139 31 -49 -98 48 13 27 -94 -36 -72 -6 0
-140 -97 0
-140 92 0
-140 5 0
-140 75 0
-140 -85 0
-140 86 0
-140 43 0
-140 -71 0
-140 -33 0
-140 -13 0
140 97 -92 -5 -75 85 -86 -43 71 33 13 0
131 132 133 134 135 136 137 138 139 140 0
-141 58 0
-141 55 0
-141 -42 0
-141 -17 0
-141 31 0
-141 5 0
-141 95 0
-141 -23 0
-141 3 0
-141 -93 0
141 -58 -55 42 17 -31 -5 -95 23 -3 93 0
-142 -47 0
-142 -63 0
-142 15 0
-142 45 0
-142 39 0
-142 -88 0
-142 -17 0
-142 13 0
-142 86 0
-142 -66 0
142 47 63 -15 -45 -39 88 17 -13 -86 66 0
-143 -55 0
-143 -26 0
-143 -4 0
-143 -64 0
-143 -76 0
-143 -54 0
-143 31 0
-143 -88 0
-143 56 0
-143 -65 0
143 55 26 4 64 76 54 -31 88 -56 65 0
-144 -13 0
-144 47 0
-144 37 0
-144 96 0
-144 -22 0
-144 -8 0
-144 90 0
-144 -5 0
-144 -60 0
-144 -97 0
144 13 -47 -37 -96 22 8 -90 5 60 97 0
-145 -40 0
-145 -67 0
-145 -7 0
-145 63 0
-145 100 0
-145 48 0
-145 -41 0
-145 68 0
-145 -34 0
-145 91 0
145 40 67 7 -63 -100 -48 41 -68 34 -91 0
-146 13 0
-146 -16 0
-146 29 0
-146 -26 0
-146 -85 0
-146 -70 0
-146 -86 0
-146 -23 0
-146 -45 0
-146 66 0
146 -13 16 -29 26 85 70 86 23 45 -66 0
-147 44 0
-147 83 0
-147 39 0
-147 -47 0
-147 11 0
-147 48 0
-147 99 0
-147 80 0
-147 63 0
-147 -96 0
147 -44 -83 -39 47 -11 -48 -99 -80 -63 96 0
-148 46 0
-148 84 0
-148 -39 0
-148 37 0
-148 68 0
-148 12 0
-148 52 0
-148 -15 0
-148 -36 0
-148 -73 0
148 -46 -84 39 -37 -68 -12 -52 15 36 73 0
-149 -61 0
-149 -89 0
-149 -28 0
-149 -11 0
-149 34 0
-149 81 0
-149 -75 0
-149 46 0
-149 27 0
-149 -26 0
149 61 89 28 11 -34 -81 75 -46 -27 26 0
-150 -8 0
-150 50 0
-150 96 0
-150 10 0
-150 26 0
-150 77 0
-150 59 0
-150 23 0
-150 -80 0
-150 -38 0
150 8 -50 -96 -10 -26 -77 -59 -23 80 38 0
141 142 143 144 145 146 147 148 149 150 0
-151 91 0
-151 -59 0
-151 -20 0
-151 -5 0
-151 -13 0
-151 19 0
-151 -60 0
-151 -2 0
-151 64 0
-151 44 0
151 -91 59 20 5 13 -19 60 2 -64 -44 0
-152 -26 0
-152 89 0
-152 -31 0
-152 99 0
-152 -57 0
-152 -50 0
-152 7 0
-152 -59 0
-152 47 0
-152 56 0
152 26 -89 31 -99 57 50 -7 59 -47 -56 0
-153 55 0
-153 -38 0
-153 -56 0
-153 87 0
-153 -8 0
-153 -43 0
-153 -99 0
-153 74 0
-153 -32 0
-153 70 0
153 -55 38 56 -87 8 43 99 -74 32 -70 0
-154 -17 0
-154 -8 0
-154 -73 0
-154 18 0
-154 -98 0
-154 -80 0
-154 -29 0
-154 63 0
-154 -70 0
-154 -6 0
154 17 8 73 -18 98 80 29 -63 70 6 0
-155 72 0
-155 26 0
-155 -89 0
-155 5 0
-155 27 0
-155 -91 0
-155 -41 0
-155 -100 0
-155 -29 0
-155 -34 0
155 -72 -26 89 -5 -27 91 41 100 29 34 0
-156 -38 0
-156 -7 0
-156 85 0
-156 -72 0
-156 -36 0
-156 -18 0
-156 4 0
-156 32 0
-156 82 0
-156 98 0
156 38 7 -85 72 36 18 -4 -32 -82 -98 0
-157 -30 0
-157 17 0
-157 83 0
-157 57 0
-157 -58 0
-157 -36 0
-157 -29 0
-157 15 0
-157 -40 0
-157 72 0
157 30 -17 -83 -57 58 36 29 -15 40 -72 0
-158 28 0
-158 67 0
-158 -80 0
-158 -54 0
-158 41 0
-158 -70 0
-158 -89 0
-158 -7 0
-158 85 0
-158 72 0
158 -28 -67 80 54 -41 70 89 7 -85 -72 0
-159 25 0
-159 -99 0
-159 -61 0
-159 20 0
-159 -21 0
-159 34 0
-159 -81 0
-159 18 0
-159 -87 0
-159 77 0
159 -25 99 61 -20 21 -34 81 -18 87 -77 0
-160 -3 0
-160 76 0
-160 -65 0
-160 11 0
-160 74 0
-160 59 0
-160 -33 0
-160 -29 0
-160 61 0
-160 97 0
160 3 -76 65 -11 -74 -59 33 29 -61 -97 0
151 152 153 154 155 156 157 158 159 160 0
-161 89 0
-161 49 0
-161 -71 0
-161 -14 0
-161 -79 0
-161 77 0
-161 -27 0
-161 -21 0
-161 -1 0
-161 70 0
161 -89 -49 71 14 79 -77 27 21 1 -70 0
-162 85 0
-162 -87 0
-162 -44 0
-162 9 0
-162 47 0
-162 46 0
-162 -36 0
-162 -91 0
-162 -40 0
-162 66 0
162 -85 87 44 -9 -47 -46 36 91 40 -66 0
-163 49 0
-163 92 0
-163 22 0
-163 -39 0
-163 90 0
-163 84 0
-163 50 0
-163 75 0
-163 -100 0
-163 72 0
163 -49 -92 -22 39 -90 -84 -50 -75 100 -72 0
-164 -9 0
-164 99 0
-164 42 0
-164 -91 0
-164 90 0
-164 4 0
-164 68 0
-164 27 0
-164 28 0
-164 43 0
164 9 -99 -42 91 -90 -4 -68 -27 -28 -43 0
-165 45 0
-165 -55 0
-165 43 0
-165 28 0
-165 -54 0
-165 -64 0
-165 63 0
-165 60 0
-165 74 0
-165 38 0
165 -45 55 -43 -28 54 64 -63 -60 -74 -38 0
-166 98 0
-166 -88 0
-166 -45 0
-166 86 0
-166 16 0
-166 -54 0
-166 -56 0
-166 -91 0
-166 -18 0
-166 79 0
166 -98 88 45 -86 -16 54 56 91 18 -79 0
-167 21 0
-167 79 0
-167 -98 0
-167 -2 0
-167 -69 0
-167 -92 0
-167 63 0
-167 17 0
-167 -39 0
-167 -29 0
167 -21 -79 98 2 69 92 -63 -17 39 29 0
-168 -91 0
-168 84 0
-168 35 0
-168 -40 0
-168 -53 0
-168 -3 0
-168 42 0
-168 -67 0
-168 97 0
-168 96 0
168 91 -84 -35 40 53 3 -42 67 -97 -96 0
-169 94 0
-169 42 0
-169 -49 0
-169 35 0
-169 -60 0
-169 44 0
-169 -19 0
-169 -64 0
-169 -55 0
-169 -74 0
169 -94 -42 49 -35 60 -44 19 64 55 74 0
-170 -35 0
-170 41 0
-170 -37 0
-170 30 0
-170 -96 0
-170 86 0
-170 66 0
-170 -5 0
-170 -72 0
-170 79 0
170 35 -41 37 -30 96 -86 -66 5 72 -79 0
161 162 163 164 165 166 167 168 169 170 0
-171 86 0
-171 -78 0
-171 -6 0
-171 -35 0
-171 94 0
-171 -90 0
-171 -55 0
-171 -62 0
-171 -39 0
-171 -56 0
171 -86 78 6 35 -94 90 55 62 39 56 0
-172 58 0
-172 8 0
-172 13 0
-172 -87 0
-172 91 0
-172 -35 0
-172 19 0
-172 52 0
-172 40 0
-172 6 0
172 -58 -8 -13 87 -91 35 -19 -52 -40 -6 0
-173 81 0
-173 -44 0
-173 -38 0
-173 85 0
-173 47 0
-173 -90 0
-173 80 0
-173 64 0
-173 -37 0
-173 -96 0
173 -81 44 38 -85 -47 90 -80 -64 37 96 0
-174 -73 0
-174 20 0
-174 -71 0
-174 72 0
-174 -40 0
-174 31 0
-174 -80 0
-174 -29 0
-174 -7 0
-174 99 0
174 73 -20 71 -72 40 -31 80 29 7 -99 0
-175 -20 0
-175 21 0
-175 86 0
-175 43 0
-175 -40 0
-175 74 0
-175 95 0
-175 91 0
-175 -45 0
-175 99 0
175 20 -21 -86 -43 40 -74 -95 -91 45 -99 0
-176 -93 0
-176 -90 0
-176 14 0
-176 94 0
-176 -79 0
-176 47 0
-176 -57 0
-176 33 0
-176 100 0
-176 -18 0
176 93 90 -14 -94 79 -47 57 -33 -100 18 0
-177 19 0
-177 -51 0
-177 -49 0
-177 9 0
-177 39 0
-177 13 0
-177 -76 0
-177 34 0
-177 -40 0
-177 -11 0
177 -19 51 49 -9 -39 -13 76 -34 40 11 0
-178 -88 0
-178 -85 0
-178 43 0
-178 -70 0
-178 64 0
-178 -76 0
-178 65 0
-178 -89 0
-178 71 0
-178 100 0
178 88 85 -43 70 -64 76 -65 89 -71 -100 0
-179 67 0
-179 -50 0
-179 -47 0
-179 -15 0
-179 -46 0
-179 -48 0
-179 -36 0
-179 -38 0
-179 -82 0
-179 76 0
179 -67 50 47 15 46 48 36 38 82 -76 0
-180 -67 0
-180 -37 0
-180 -88 0
-180 -61 0
-180 22 0
-180 -48 0
-180 -97 0
-180 -26 0
-180 -43 0
-180 -89 0
180 67 37 88 61 -22 48 97 26 43 89 0
171 172 173 174 175 176 177 178 179 180 0
-181 -48 0
-181 54 0
-181 -100 0
-181 20 0
-181 45 0
-181 -71 0
-181 -15 0
-181 -58 0
-181 91 0
-181 -66 0
181 48 -54 100 -20 -45 71 15 58 -91 66 0
-182 -96 0
-182 -87 0
-182 66 0
-182 -30 0
-182 99 0
-182 -61 0
-182 -25 0
-182 -88 0
-182 -44 0
-182 -100 0
182 96 87 -66 30 -99 61 25 88 44 100 0
-183 -53 0
-183 -31 0
-183 -69 0
-183 -1 0
-183 73 0
-183 74 0
-183 -2 0
-183 100 0
-183 32 0
-183 19 0
183 53 31 69 1 -73 -74 2 -100 -32 -19 0
-184 -64 0
-184 43 0
-184 4 0
-184 63 0
-184 -76 0
-184 81 0
-184 -3 0
-184 30 0
-184 79 0
-184 -72 0
184 64 -43 -4 -63 76 -81 3 -30 -79 72 0
-185 30 0
-185 -29 0
-185 -2 0
-185 -88 0
-185 84 0
-185 56 0
-185 -16 0
-185 -5 0
-185 -57 0
-185 32 0
185 -30 29 2 88 -84 -56 16 5 57 -32 0
-186 65 0
-186 77 0
-186 -24 0
-186 -76 0
-186 43 0
-186 -81 0
-186 -39 0
-186 -57 0
-186 44 0
-186 31 0
186 -65 -77 24 76 -43 81 39 57 -44 -31 0
-187 4 0
-187 -83 0
-187 92 0
-187 62 0
-187 75 0
-187 -39 0
-187 -53 0
-187 26 0
-187 80 0
-187 -40 0
187 -4 83 -92 -62 -75 39 53 -26 -80 40 0
-188 47 0
-188 -79 0
-188 92 0
-188 96 0
-188 -44 0
-188 59 0
-188 -60 0
-188 -62 0
-188 83 0
-188 -63 0
188 -47 79 -92 -96 44 -59 60 62 -83 63 0
-189 -87 0
-189 -32 0
-189 -10 0
-189 96 0
-189 -66 0
-189 -44 0
-189 -77 0
-189 91 0
-189 72 0
-189 -68 0
189 87 32 10 -96 66 44 77 -91 -72 68 0
-190 -62 0
-190 51 0
-190 61 0
-190 11 0
-190 29 0
-190 55 0
-190 48 0
-190 -59 0
-190 35 0
-190 54 0
190 62 -51 -61 -11 -29 -55 -48 59 -35 -54 0
181 182 183 184 185 186 187 188 189 190 0
-191 85 0
-191 -7 0
-191 -91 0
-191 90 0
-191 -80 0
-191 38 0
-191 -66 0
-191 4 0
-191 2 0
-191 -47 0
191 -85 7 91 -90 80 -38 66 -4 -2 47 0
-192 73 0
-192 57 0
-192 -89 0
-192 -47 0
-192 71 0
-192 25 0
-192 28 0
-192 75 0
-192 -94 0
-192 -34 0
192 -73 -57 89 47 -71 -25 -28 -75 94 34 0
-193 -81 0
-193 -2 0
-193 -6 0
-193 -21 0
-193 -66 0
-193 -89 0
-193 98 0
-193 -72 0
-193 -82 0
-193 -53 0
193 81 2 6 21 66 89 -98 72 82 53 0
-194 -87 0
-194 -30 0
-194 13 0
-194 41 0
-194 -74 0
-194 40 0
-194 -35 0
-194 -10 0
-194 -65 0
-194 47 0
194 87 30 -13 -41 74 -40 35 10 65 -47 0
-195 -67 0
-195 60 0
-195 -54 0
-195 37 0
-195 57 0
-195 -64 0
-195 -76 0
-195 -16 0
-195 61 0
-195 90 0
195 67 -60 54 -37 -57 64 76 16 -61 -90 0
-196 -52 0
-196 -91 0
-196 -8 0
-196 -18 0
-196 -57 0
-196 53 0
-196 -64 0
-196 92 0
-196 13 0
-196 -14 0
196 52 91 8 18 57 -53 64 -92 -13 14 0
-197 -10 0
-197 2 0
-197 -90 0
-197 -30 0
-197 32 0
-197 -82 0
-197 98 0
-197 39 0
-197 -5 0
-197 78 0
197 10 -2 90 30 -32 82 -98 -39 5 -78 0
-198 -68 0
-198 -36 0
-198 -33 0
-198 97 0
-198 -8 0
-198 -87 0
-198 48 0
-198 -57 0
-198 67 0
-198 28 0
198 68 36 33 -97 8 87 -48 57 -67 -28 0
-199 -66 0
-199 9 0
-199 -54 0
-199 84 0
-199 41 0
-199 74 0
-199 69 0
-199 39 0
-199 -8 0
-199 47 0
199 66 -9 54 -84 -41 -74 -69 -39 8 -47 0
-200 73 0
-200 -75 0
-200 3 0
-200 82 0
-200 21 0
-200 -71 0
-200 -34 0
-200 67 0
-200 66 0
-200 -36 0
200 -73 75 -3 -82 -21 71 34 -67 -66 36 0
191 192 193 194 195 196 197 198 199 200 0
